c uprop, v00.0, 
c reading from data/prog947.c.cnf
c done reading: 0
p cnf 122 489
-68 -88 0
-72 -88 0
68 72 88 0
68 72 -94 0
-68 -72 -94 0
-68 72 94 0
68 -72 94 0
-77 88 0
-77 -79 0
77 79 -88 0
79 -83 -88 0
-79 -83 88 0
79 83 88 0
-79 83 -88 0
77 -87 0
-87 -90 0
-77 87 90 0
-77 90 -92 0
77 -90 -92 0
77 90 92 0
-77 -90 92 0
87 -93 0
-93 -95 0
-87 93 95 0
-70 -87 95 0
-70 87 -95 0
70 87 95 0
70 -87 -95 0
-66 93 0
-66 -75 0
66 75 -93 0
-65 75 -93 0
-65 -75 93 0
65 75 93 0
65 -75 -93 0
-64 66 0
-64 -81 0
64 -66 81 0
-63 -66 81 0
-63 66 -81 0
63 66 81 0
63 -66 -81 0
-62 64 0
-62 -85 0
62 -64 85 0
-61 -64 85 0
-61 64 -85 0
61 64 85 0
61 -64 -85 0
-60 -68 0
-60 -72 0
60 68 72 0
-59 68 72 0
-59 -68 -72 0
59 -68 72 0
59 68 -72 0
-58 60 0
-58 -79 0
58 -60 79 0
-57 -60 79 0
-57 60 -79 0
57 60 79 0
57 -60 -79 0
-56 58 0
-56 -90 0
56 -58 90 0
-55 -58 90 0
-55 58 -90 0
55 58 90 0
55 -58 -90 0
-54 56 0
-54 -95 0
54 -56 95 0
-56 95 -97 0
56 -95 -97 0
56 95 97 0
-56 -95 97 0
54 -98 0
-75 -98 0
-54 75 98 0
-54 75 -99 0
54 -75 -99 0
54 75 99 0
-54 -75 99 0
98 -100 0
-81 -100 0
81 -98 100 0
81 -98 -101 0
-81 98 -101 0
81 98 101 0
-81 -98 101 0
100 -102 0
-85 -102 0
85 -100 102 0
-69 85 -100 0
-69 -85 100 0
69 85 100 0
69 -85 -100 0
-73 -104 0
73 104 0
-80 104 0
80 -104 0
73 -91 0
-91 -106 0
-73 91 106 0
-73 -96 106 0
73 -96 -106 0
73 96 106 0
-73 96 -106 0
-76 91 0
-76 -109 0
76 -91 109 0
-82 -91 109 0
-82 91 -109 0
82 91 109 0
82 -91 -109 0
76 -86 0
-86 -111 0
-76 86 111 0
-76 111 -113 0
76 -111 -113 0
76 111 113 0
-76 -111 113 0
86 -105 0
-105 -115 0
-86 105 115 0
-86 -107 115 0
86 -107 -115 0
86 107 115 0
-86 107 -115 0
105 -110 0
-110 -117 0
-105 110 117 0
-105 -112 117 0
105 -112 -117 0
105 112 117 0
-105 112 -117 0
110 -116 0
-116 -120 0
-110 116 120 0
-110 -118 120 0
110 -118 -120 0
110 118 120 0
-110 118 -120 0
109 -121 0
-109 121 0
-104 -111 122 0
104 111 -122 0
111 -122 0
104 -122 0
-53 111 -122 0
-53 104 -122 0
-53 -122 0
53 -111 122 0
53 -104 122 0
-53 104 111 0
52 -106 -115 0
52 -115 -122 0
52 -106 -122 0
-52 106 115 0
-52 115 122 0
-52 106 122 0
-51 -52 115 0
-51 -52 106 0
-51 -52 122 0
51 52 -115 0
51 52 -106 0
51 52 -122 0
51 -106 -115 -122 0
-51 106 115 122 0
50 -109 -117 0
50 -52 -117 0
50 -52 -109 0
-50 109 117 0
-50 52 117 0
-50 52 109 0
-49 -50 117 0
-49 -50 109 0
-49 -50 52 0
49 50 -117 0
49 50 -109 0
49 50 -52 0
49 -52 -109 -117 0
-49 52 109 117 0
48 -111 -120 0
48 -50 -120 0
48 -50 -111 0
-48 111 120 0
-48 50 120 0
-48 50 111 0
-47 -48 120 0
-47 -48 111 0
-47 -48 50 0
47 48 -120 0
47 48 -111 0
47 48 -50 0
47 -50 -111 -120 0
-47 50 111 120 0
-46 115 0
-46 48 0
46 -48 -115 0
-45 -48 -115 0
-45 48 115 0
45 48 -115 0
45 -48 115 0
-44 117 0
-44 46 0
44 -46 -117 0
-43 -46 -117 0
-43 46 117 0
43 46 -117 0
43 -46 117 0
-42 120 0
-42 44 0
42 -44 -120 0
-41 -44 -120 0
-41 44 120 0
41 44 -120 0
41 -44 120 0
-40 53 0
40 -53 0
39 -51 -104 0
-39 51 104 0
-39 51 0
-39 104 0
-38 -39 51 0
-38 -39 104 0
-38 -39 0
38 39 -51 0
38 39 -104 0
-38 51 104 0
37 -49 -106 0
37 -39 -49 0
37 -39 -106 0
-37 49 106 0
-37 39 49 0
-37 39 106 0
-36 -37 49 0
-36 -37 106 0
-36 -37 39 0
36 37 -49 0
36 37 -106 0
36 37 -39 0
36 -39 -49 -106 0
-36 39 49 106 0
35 -47 -109 0
35 -37 -47 0
35 -37 -109 0
-35 47 109 0
-35 37 47 0
-35 37 109 0
-34 -35 47 0
-34 -35 109 0
-34 -35 37 0
34 35 -47 0
34 35 -109 0
34 35 -37 0
34 -37 -47 -109 0
-34 37 47 109 0
33 -45 -111 0
33 -35 -45 0
33 -35 -111 0
-33 45 111 0
-33 35 45 0
-33 35 111 0
-32 -33 45 0
-32 -33 111 0
-32 -33 35 0
32 33 -45 0
32 33 -111 0
32 33 -35 0
32 -35 -45 -111 0
-32 35 45 111 0
31 -43 -115 0
31 -33 -43 0
31 -33 -115 0
-31 43 115 0
-31 33 43 0
-31 33 115 0
-30 -31 43 0
-30 -31 115 0
-30 -31 33 0
30 31 -43 0
30 31 -115 0
30 31 -33 0
30 -33 -43 -115 0
-30 33 43 115 0
29 -41 -117 0
29 -31 -41 0
29 -31 -117 0
-29 41 117 0
-29 31 41 0
-29 31 117 0
-28 -29 41 0
-28 -29 117 0
-28 -29 31 0
28 29 -41 0
28 29 -117 0
28 29 -31 0
28 -31 -41 -117 0
-28 31 41 117 0
27 -42 -120 0
27 -29 -42 0
27 -29 -120 0
-27 42 120 0
-27 29 42 0
-27 29 120 0
-26 -27 42 0
-26 -27 120 0
-26 -27 29 0
26 27 -42 0
26 27 -120 0
26 27 -29 0
26 -29 -42 -120 0
-26 29 42 120 0
-25 -104 0
25 104 0
-24 104 0
24 -104 0
-23 25 0
-23 -106 0
23 -25 106 0
-22 -25 106 0
-22 25 -106 0
22 25 106 0
22 -25 -106 0
-21 23 0
-21 -121 0
21 -23 121 0
-20 -23 121 0
-20 23 -121 0
20 23 121 0
20 -23 -121 0
-19 21 0
-19 -40 0
19 -21 40 0
-18 -21 40 0
-18 21 -40 0
18 21 40 0
18 -21 -40 0
-17 19 0
-17 -38 0
17 -19 38 0
-16 -19 38 0
-16 19 -38 0
16 19 38 0
16 -19 -38 0
-15 17 0
-15 -36 0
15 -17 36 0
-14 -17 36 0
-14 17 -36 0
14 17 36 0
14 -17 -36 0
-13 15 0
-13 -34 0
13 -15 34 0
-12 -15 34 0
-12 15 -34 0
12 15 34 0
12 -15 -34 0
-11 13 0
-11 -32 0
11 -13 32 0
-10 -13 32 0
-10 13 -32 0
10 13 32 0
10 -13 -32 0
-9 11 0
-9 -30 0
9 -11 30 0
-8 -11 30 0
-8 11 -30 0
8 11 30 0
8 -11 -30 0
-7 9 0
-7 -28 0
7 -9 28 0
-6 -9 28 0
-6 9 -28 0
6 9 28 0
6 -9 -28 0
-5 7 0
-5 -26 0
5 -7 26 0
-7 26 -67 0
7 -26 -67 0
7 26 67 0
-7 -26 67 0
5 -71 0
-27 -71 0
-5 27 71 0
-5 27 -78 0
5 -27 -78 0
5 27 78 0
-5 -27 78 0
68 -89 0
-89 104 0
-68 89 -104 0
-68 104 0
68 -104 0
-72 74 -106 0
-72 74 -89 0
74 -89 -106 0
72 -74 106 0
72 -74 89 0
-74 89 106 0
72 -74 0
-74 106 0
-74 89 0
72 89 106 0
-79 84 -121 0
-74 -79 84 0
-74 84 -121 0
79 -84 121 0
74 79 -84 0
74 -84 121 0
79 -84 0
-84 121 0
74 -84 0
74 79 121 0
-40 -90 103 0
-84 -90 103 0
-40 -84 103 0
40 90 -103 0
84 90 -103 0
40 84 -103 0
90 -103 0
40 -103 0
84 -103 0
40 84 90 0
-38 -95 108 0
-95 -103 108 0
-38 -103 108 0
38 95 -108 0
95 103 -108 0
38 103 -108 0
-95 108 0
-38 108 0
-103 108 0
-38 -95 -103 0
-36 -75 114 0
-75 -108 114 0
-36 -108 114 0
36 75 -114 0
75 108 -114 0
36 108 -114 0
-75 114 0
-36 114 0
-108 114 0
-36 -75 -108 0
-34 -81 119 0
-81 -114 119 0
-34 -114 119 0
34 81 -119 0
81 114 -119 0
34 114 -119 0
81 -119 0
34 -119 0
114 -119 0
34 81 114 0
4 -32 -85 0
4 -85 -119 0
4 -32 -119 0
-4 32 85 0
-4 85 119 0
-4 32 119 0
4 -85 0
4 -32 0
4 -119 0
-32 -85 -119 0
-3 30 0
-3 4 0
3 -4 -30 0
4 -30 0
-4 30 0
-2 28 0
-2 3 0
2 -3 -28 0
3 -28 0
-3 28 0
-1 26 0
-1 2 0
1 -2 -26 0
2 -26 0
-2 26 0
-1 -27 0
1 -27 0
-1 27 0
